TasksSet/ns4.txt
# first_arrival|exe_time_dist|deadline|period_dist
---------------------
# soft tasks
# first_arrival|exe_time_dist|deadline|period_dist|cost
0|[1,1]|3|[4,1]|3
0|[4,1]|3|[4,1]|6
0|[2,1]|6|[5,1]|7